CMD:
./solvers/bin/cadical --plain --no-reduce -t 1600 ./data/cnfs//bobsynth09neg/bobsynth09neg.78.cnf

c --- [ banner ] -------------------------------------------------------------
c 
c CaDiCaL SAT Solver
c Copyright (c) 2016-2024
c A. Biere, M. Fleury, N. Froleyks, K. Fazekas, F. Pollitt, T. Faller
c JKU Linz, University of Freiburg, TU Wien
c 
c Version 2.1.3 5296d3d2a9bf48c154ab2acb5e44625776d821bf
c g++ (Gentoo 12.3.1_p20230526 p2) 12.3.1 20230526 -Wall -Wextra -O3 -DNDEBUG
c Sat Aug 9 07:26:21 PDT 2025 Linux cedar2.int.cedar.computecanada.ca 5.14.0-362.24.2.el9_3.x86_64 x86_64
c 
c --- [ limit ] --------------------------------------------------------------
c 
c setting time limit to 1600 seconds real time (due to '-t 1600')
c 
c --- [ parsing input ] ------------------------------------------------------
c 
c reading DIMACS file from './data/cnfs//bobsynth09neg/bobsynth09neg.78.cnf'
c opening file to read './data/cnfs//bobsynth09neg/bobsynth09neg.78.cnf'
c found 'p cnf 1231213 3648786' header
c parsed 3648786 clauses in 0.63 seconds process time
c 
c --- [ options ] ------------------------------------------------------------
c 
c   --compact=false                (different from default 'true')
c   --decompose=false              (different from default 'true')
c   --deduplicate=false            (different from default 'true')
c   --elim=false                   (different from default 'true')
c   --probe=false                  (different from default 'true')
c   --reduce=false                 (different from default 'true')
c   --subsume=false                (different from default 'true')
c   --ternary=false                (different from default 'true')
c   --transred=false               (different from default 'true')
c   --vivify=false                 (different from default 'true')
c 
c --- [ solving ] ------------------------------------------------------------
c 
c time measured in process time since initialization
c 
c  seconds   reductions  redundant   irredundant
c          MB    restarts       trail         variables
c           level   conflicts       glue            remaining
c 
c *  0.63 551  0 0   0    0    0  0% 0 3431329 1108512 90%
c {  0.86 565  0 0   0    0    0  0% 0 3431329 1108512 90%
c i  0.88 565 219 0   0   43   40 11% 1 3431329 1108504 90%
c i  0.91 565 312 0  10   93   87 12% 2 3431329 1108135 90%
c i  0.91 565 309 0  11   94   87 11% 2 3431329 1108104 90%
c i  1.03 566 637 0  37  289  268 14% 2 3431329 1108038 90%
c i  1.03 566 635 0  38  290  268 14% 2 3431329 1107975 90%
c i  1.04 566 566 0  46  324  301 14% 2 3431329 1107871 90%
c i  1.04 566 556 0  48  330  306 14% 2 3431329 1107869 90%
c i  1.05 566 554 0  48  331  306 14% 2 3431329 1107868 90%
c i  1.07 566 500 0  57  370  342 13% 2 3431329 1107805 90%
c i  1.07 566 499 0  57  371  342 13% 2 3431329 1107804 90%
c i  1.12 567 384 0  75  563  482 13% 2 3431329 1103804 90%
c i  1.13 567 384 0  76  564  482 13% 2 3431329 1098536 89%
c i  1.13 567 383 0  76  565  482 13% 2 3431329 1097213 89%
c i  1.13 567 382 0  76  566  482 13% 2 3431329 1097202 89%
c i  1.13 567 381 0  77  567  482 13% 2 3431329 1092542 89%
c i  1.14 567 381 0  77  568  482 13% 2 3431329 1092036 89%
c i  1.14 567 380 0  77  569  482 13% 2 3431329 1089753 89%
c i  1.14 567 379 0  77  570  482 13% 2 3431329 1088398 88%
c 
c  seconds    reductions  redundant   irredundant
c          MB     restarts       trail         variables
c            level   conflicts       glue            remaining
c 
c i  1.49 570 226 0 130 1002  891 15% 2 3431329 1088394 88%
c }  1.49 570 226 0 130 1002  891 15% 2 3431329 1088394 88%
c [  1.49 570  0 0 130 1002  891  0% 0 3431329 1088394 88%
c F  1.67 571 8315 0 130 1003  892 74% 4 3431329 1088394 88%
c i  2.26 573 6160 0 130 2057 1752 60% 4 3431329 1088389 88%
c i  2.31 573 5245 0 131 2220 1904 54% 4 3431329 1088031 88%
c i  2.32 573 5162 0 131 2238 1915 54% 4 3431329 1087927 88%
c i  2.32 573 5153 0 131 2240 1915 54% 4 3431329 1080391 88%
c i  2.32 573 5090 0 131 2254 1927 53% 4 3431329 1079309 88%
c i  2.32 573 5086 0 131 2255 1927 53% 4 3431329 1078155 88%
c i  2.32 573 5081 0 131 2256 1927 53% 4 3431329 1077841 88%
c i  2.32 573 5068 0 131 2259 1928 53% 4 3431329 1077811 88%
c i  2.32 573 5042 0 131 2265 1932 53% 4 3431329 1073866 87%
c i  2.33 573 5029 0 131 2269 1933 53% 4 3431329 1071404 87%
c i  2.33 573 5015 0 131 2272 1934 53% 4 3431329 1071295 87%
c i  2.33 573 4998 0 131 2276 1937 53% 4 3431329 1071159 87%
c i  2.34 573 4924 0 131 2294 1952 52% 4 3431329 1070010 87%
c i  2.34 573 4911 0 131 2297 1953 52% 4 3431329 1062078 86%
c i  2.34 573 4898 0 131 2301 1955 52% 4 3431329 1061966 86%
c ]  2.34 573 4890 0 131 2304 1956 52% 4 3431329 1061368 86%
c 
c  seconds     reductions  redundant   irredundant
c          MB      restarts       trail         variables
c            level    conflicts       glue            remaining
c 
c 0  2.34 573 4890 0 131 2304 1956 52% 4 3431329 1061368 86%
c 
c --- [ result ] -------------------------------------------------------------
c 
s UNSATISFIABLE
c 
c --- [ run-time profiling ] -------------------------------------------------
c 
c process time taken by individual solving procedures
c (percentage relative to process time for solving)
c 
c         1.72   99.99% search
c         0.85   49.61% stable
c         0.63   36.94% unstable
c         0.63   36.50% parse
c         0.23   13.45% lucky
c         0.00    0.00% simplify
c   =================================
c         1.72   73.24% solve
c 
c last line shows process time for solving
c (percentage relative to total process time)
c 
c --- [ statistics ] ---------------------------------------------------------
c 
c chronological:              1143        49.61 %  of conflicts
c conflicts:                  2304      1343.20    per second
c decisions:                 39734     23164.41    per second
c fixed:                    169781        13.79 %  of all variables
c learned:                    2079        90.23 %  per conflict
c learned_lits:              30655       100.00 %  learned literals
c minimized:                     0         0.00 %  learned literals
c shrunken:                   1947         6.35 %  learned literals
c minishrunken:               4652        15.18 %  learned literals
c otfs:                         21         0.91 %  of conflict
c propagations:           17272206        10.07 M  per second
c rephased:                      1      2304.00    interval
c restarts:                    131        17.59    interval
c stabilizing:                   1        56.51 %  of conflicts
c subsumed:                     84         0.00 %  of all clauses
c strengthened:                 21         0.00 %  of all clauses
c 
c seconds are measured in process time for solving
c 
c --- [ resources ] ----------------------------------------------------------
c 
c total process time since initialization:         2.34    seconds
c total real time since initialization:            2.36    seconds
c maximum resident set size of process:          571.94    MB
c 
c --- [ shutting down ] ------------------------------------------------------
c 
c exit 20
